p cnf 7230 17
-2364 -3230 3549 0
3230 -3549 0
-2380 -2992 -3554 0
-2376 -3154 -3552 0
-2370 -2988 -3550 0
2380 -3555 0
2376 -3553 0
2370 -3551 0
3554 3555 0
3552 3553 0
3550 3551 0
2992 -3555 0
3154 -3553 0
2988 -3551 0
2382 -3557 0
3548 3549 0
-3548 -3549 0
